6151
6188
6345
6317
6279
6322
6338
6293
6307
6316
6275
6275
6311
6089
6329
6302
6327
6275
6212
6337
6303
6264
6251
6175
6299
6205
6248
6253
6252
6223
6260
6134
6307
6180
6311
6267
6299
6303
6194
6248
6291
6221
6238
6320
6257
6266
6255
6209
6278
6224
6312
6167
6343
6257
6347
6354
6260
6261
6265
6277
6241
6231
6261
6262
6263
6326
6339
6264
6299
6278
6188
6287
6278
6288
6161
6270
6198
6243
6337
6205
6260
6248
6262
6271
6319
6262
6297
6190
6315
6317
6236
6264
6321
6320
6181
6325
6334
6358
6259
6283
